*MATERIAL, NAME=ABQ_PHASE_TRANS_EOSGP1
*DENSITY
** Unit: tonne/mm^3
 7.8e-09
*CONDUCTIVITY, DEPENDENCIES = 1
** unit: mW/(mm.C)
    1.3,   10., -1.
   4.60, 1610., -1.
   46.0, 1620., -1.
   13.0,   10.,  0.
   46.0, 1610.,  0.
*SPECIFIC HEAT, DEPENDENCIES = 1
** Unit: mJ/(tonne.C)
 4.4e+07,     10., -1.
 8.3e+07,   1610., -1.
 8.3e+08,   1620., -1.
 4.4e+08,      10.,  0.
 8.3e+08,    1610.,  0.
***LATENT HEAT
**** Unit: mJ/tonne, C, C
** 2.86E+11, 1604., 1650.
*DEPVAR
 20
 1,  RLS
 2,  fGrainColumnar
 3,  GrainSize
 4,  fPhase_Alpha
 5,  fPhase_Beta
 6,  fPhase_Alphaprime
***Heat Generation
***USER DEFINED FIELD
**--------------------------------------------------
*PARAMETER TABLE, TYPE="ABQ_PHASE_TRANS_MeltingTemperature"
 1610., 1620.
**--------------------------------------------------
*PARAMETER TABLE, TYPE="ABQ_PHASE_TRANS_SolidPhases"
 "Alpha"     , 0.
 "Beta"      , 1.
 "Alphaprime", 0.
*PARAMETER TABLE, TYPE="ABQ_PHASE_TRANS_Transformations"
 "BtoM",  MAX,   , -420., MAX,  , 851., MARTENSITIC, KM,  NO,  1, 1, "Beta", , , "Alphaprime",
 , ,
 "MtoAB", MIN, 0.,      , NONE, ,     , DIFFUSIONAL, JMA, NO,  1, 2, "Alphaprime", , , "Alpha", 
 "Beta", ,
 "BtoA",  MIN, -420.,   , NONE, ,     , DIFFUSIONAL, TTT, YES, 1, 1, "Beta", , , "Alpha",
 , ,
**
*PROPERTY TABLE, TYPE="ABQ_PHASE_TRANS_Martensitic_KM_Coefficients", LABEL="ABQ_PHASE_TRANS_Trans_BtoM_KM_Coefficients"
 0.005
*PARAMETER TABLE, TYPE="ABQ_PHASE_TRANS_Martensitic_TTT_Constants", LABEL="ABQ_PHASE_TRANS_Trans_BtoM_TTT_Constants"
 0.0440, 0.9765
*PROPERTY TABLE,  TYPE="ABQ_PHASE_TRANS_Martensitic_TTT_Diagram", LABEL="ABQ_PHASE_TRANS_Trans_BtoM_TTT_Diagram"
 647., 400.
*PROPERTY TABLE, TYPE="ABQ_PHASE_TRANS_Martensitic_ParentRetainedFrac", LABEL="ABQ_PHASE_TRANS_Trans_BtoM_ParentRetainedFrac"
 0., 	0.
 0.25,0.25
 0., 	1.
**
*PROPERTY TABLE, TYPE="ABQ_PHASE_TRANS_Diffusional_JMA_Coefficients", LABEL="ABQ_PHASE_TRANS_Trans_MtoAB_JMA_Coefficients", TEMPERATURE
** Unit: 1/s^JMA.n, -
 0.0192, 0.667, 400.
 0.0147, 1.106, 500.
 0.0246, 1.252, 700.
 0.0307, 1.326, 800.
*PARAMETER TABLE, TYPE="ABQ_PHASE_TRANS_Diffusional_TTT_Constants", LABEL="ABQ_PHASE_TRANS_Trans_MtoAB_TTT_Constants"
 0.05, 0.95
*PROPERTY TABLE, TYPE="ABQ_PHASE_TRANS_Diffusional_TTT_Diagram", LABEL="ABQ_PHASE_TRANS_Trans_MtoAB_TTT_Diagram", TEMPERATURE
** Unit: s
 4.3633, 1.9416E+3, 400.
 3.0955, 0.1224E+3, 500.
 1.7984, 0.0463E+3, 700.
 1.4727, 0.0316E+3, 800.
*PROPERTY TABLE, TYPE="ABQ_PHASE_TRANS_Diffusional_ParentEquiFrac", LABEL="ABQ_PHASE_TRANS_Trans_MtoAB_ParentEquiFrac", TEMPERATURE
 0.99998699, 0.
 0.99984156, 100.
 0.99807326, 200.
 0.97702263, 300.
 0.77729986, 400.
 0.22270013, 500.
 0.02297737, 600.
 0.00192673, 700.
 0.00015843, 800.
**
*PROPERTY TABLE, TYPE="ABQ_PHASE_TRANS_Diffusional_JMA_Coefficients", LABEL="ABQ_PHASE_TRANS_Trans_BtoA_JMA_Coefficients", TEMPERATURE
** Unit: 1/s^JMA.n, -
 0.028, 1.40, 750.
 0.026, 1.34, 800.
 0.022, 1.38, 850.
 0.025, 1.34, 870.
 0.046, 1.21, 900.
 0.024, 1.39, 920.
 0.017, 1.41, 950.
*PARAMETER TABLE, TYPE="ABQ_PHASE_TRANS_Diffusional_TTT_Constants", LABEL="ABQ_PHASE_TRANS_Trans_BtoA_TTT_Constants"
 0.05, 0.95
*PROPERTY TABLE, TYPE="ABQ_PHASE_TRANS_Diffusional_TTT_Diagram", LABEL="ABQ_PHASE_TRANS_Trans_BtoA_TTT_Diagram", TEMPERATURE
** Unit: s, s
 1.5409, 28.1535,  750.
 1.6604, 34.5505,  800.
 1.8467, 35.1913,  850.
 1.7097, 35.5768,  870.
 1.0942, 31.5474,  900.
 1.7270, 32.2199,  920.
 2.1885, 39.1693,  950.
*PROPERTY TABLE, TYPE="ABQ_PHASE_TRANS_Diffusional_ParentEquiFrac", LABEL="ABQ_PHASE_TRANS_Trans_BtoA_ParentEquiFrac", TEMPERATURE
 0.07522308, 0.
 0.07552193, 100.
 0.07622115, 200.
 0.07785706, 300.
 0.08168451, 400.
 0.09063940, 500.
 0.11159068, 600.
 0.16060928, 700.
 0.27529549, 800.
 0.54362071, 900.
 0.63045841, 920.
 0.73338754, 940.
 0.85538995, 960.
 1.        , 980.
 1.        , 1000.
**----------------------------------------------
**
** Grain Morphology
**
*PARAMETER TABLE, TYPE="ABQ_PHASE_TRANS_SolidificationMap_Constants"
** Unit: mm/s, log(C/mm)/log(mm/s)
 4.2904, -1.
*PROPERTY TABLE, TYPE="ABQ_PHASE_TRANS_SolidificationMap_Diagram", LABEL="ABQ_PHASE_TRANS_SolidificationMap_Diagram_Equiaxied"
 -2.6021,  0.6324
 -2.3256,  0.6385
 -1.8465,  0.6650
 -1.6624,  0.7277
 -1.3493,  0.7829
 -1.0551,  0.9368
 -0.9082,  1.0560
 -0.7616,  1.2527
 -0.6336,  1.4635
 -0.4964,  1.7025
 -0.3500,  1.9414
 -0.2314,  2.1874
 -0.1036,  2.4546
  0.0150,  2.7218
  0.2792,  3.3969
  0.6544,  3.9801
*PROPERTY TABLE, TYPE="ABQ_PHASE_TRANS_SolidificationMap_Diagram", LABEL="ABQ_PHASE_TRANS_SolidificationMap_Diagram_Columnar"
 -1.9754,  0.6324
 -1.7542,  0.6505
 -1.5792,  0.6640
 -1.0447,  0.6903
 -0.8605,  0.7178
 -0.7040,  0.7595
 -0.5016,  0.8363
 -0.3913,  0.8993
 -0.2629,  1.0256
 -0.0250,  1.3980
  0.1304,  1.6932
  0.3133,  1.9883
  0.4503,  2.2695
  0.5142,  2.4102
  0.8158,  2.9514
  0.9070,  3.1623
  0.9803,  3.2536
  1.0624,  3.4364
  1.1079,  3.5630
  1.1993,  3.7246
  1.2632,  3.8582
  1.3180,  3.9848
**----------------------------------------------
**
** Grain Size
** 
*PARAMETER TABLE, TYPE="ABQ_PHASE_TRANS_GrainSize_Definitions"
**Unit: mm
 0., INTERVAL, 980, 1604
*PROPERTY TABLE, TYPE="ABQ_PHASE_TRANS_GrainSize_Coefficients"
**Unit: mm^2/s, -, mJ/mol
 2.02E+6, 2., 251E+6
**-----------------------------------------------------
**
** Field variables
**
*PARAMETER TABLE, TYPE="ABQ_PHASE_TRANS_FieldVariables"
 1, RLS
